(set-info :smt-lib-version 2.6)
(set-logic QF_NIA)
(set-info :source |
Generated by: Cristina Borralleras, Daniel Larraz, Albert Oliveras, Enric Rodriguez-Carbonell, Albert Rubio
Generated on: 2017-04-27
Generator: VeryMax
Application: Termination proving
Target solver: barcelogic
|)
(set-info :license "https://creativecommons.org/licenses/by/4.0/")
(set-info :category "industrial")
(set-info :status unsat)
(declare-fun Nl5main_i1 () Int)
(declare-fun Nl5main_j1 () Int)
(declare-fun Nl5main_a1 () Int)
(declare-fun Nl5main_i2 () Int)
(declare-fun Nl5main_j2 () Int)
(declare-fun Nl5main_a2 () Int)
(declare-fun Nl5CT1 () Int)
(declare-fun lam0n0 () Int)
(declare-fun Nl5CT2 () Int)
(declare-fun lam1n0 () Int)
(declare-fun main_i () Int)
(declare-fun lam2n0 () Int)
(declare-fun lam2n1 () Int)
(declare-fun lam2n2 () Int)
(declare-fun lam2n3 () Int)
(declare-fun lam2n4 () Int)
(declare-fun lam2n5 () Int)
(declare-fun lam3n0 () Int)
(declare-fun lam3n1 () Int)
(declare-fun lam3n2 () Int)
(declare-fun lam3n3 () Int)
(declare-fun lam3n4 () Int)
(declare-fun lam3n5 () Int)
(assert ( and ( <= ( - 1 ) Nl5main_i1 ) ( <= Nl5main_i1 1 ) ( <= ( - 1 ) Nl5main_j1 ) ( <= Nl5main_j1 1 ) ( <= ( - 1 ) Nl5main_a1 ) ( <= Nl5main_a1 1 ) ( <= ( - 1 ) Nl5main_i2 ) ( <= Nl5main_i2 1 ) ( <= ( - 1 ) Nl5main_j2 ) ( <= Nl5main_j2 1 ) ( <= ( - 1 ) Nl5main_a2 ) ( <= Nl5main_a2 1 ) ))
(assert ( and ( = main_i 0 ) ( <= ( + ( + ( + Nl5CT1 ( * Nl5main_j1 0 ) ) ( * Nl5main_a1 2 ) ) ( * ( + 0 Nl5main_i1 ) main_i ) ) 0 ) ( <= ( + ( + ( + Nl5CT2 ( * Nl5main_j2 0 ) ) ( * Nl5main_a2 2 ) ) ( * ( + 0 Nl5main_i2 ) main_i ) ) 0 ) ))
(assert ( or ( or ( and ( >= lam2n0 0 ) ( >= lam2n1 0 ) ( >= lam2n2 0 ) ( >= lam2n3 0 ) ( >= lam2n4 0 ) ( >= lam2n5 0 ) ( > ( + ( * 1 lam2n0 ) ( * 1 lam2n1 ) ( * ( - 3 ) lam2n2 ) ( * ( - 2 ) lam2n3 ) ( * Nl5CT1 lam2n4 ) ( * Nl5CT2 lam2n5 ) ( - 1 ) ) 0 ) ( = ( + ( * 1 lam2n0 ) ( * ( - 1 ) lam2n2 ) ( * ( - 1 ) lam2n3 ) ( * Nl5main_i1 lam2n4 ) ( * Nl5main_i2 lam2n5 ) ) 0 ) ( = ( + ( * ( - 1 ) lam2n0 ) ( * 1 lam2n1 ) ( * ( - 1 ) lam2n2 ) ( * Nl5main_j1 lam2n4 ) ( * Nl5main_j2 lam2n5 ) ) 0 ) ( = ( + ( * ( - 1 ) lam2n0 ) ( * ( - 1 ) lam2n1 ) ( * 1 lam2n3 ) ( * Nl5main_a1 lam2n4 ) ( * Nl5main_a2 lam2n5 ) ) 0 ) ) ( and ( >= lam3n0 0 ) ( >= lam3n1 0 ) ( >= lam3n2 0 ) ( >= lam3n3 0 ) ( >= lam3n4 0 ) ( >= lam3n5 0 ) ( > ( + ( * 1 lam3n0 ) ( * 1 lam3n1 ) ( * ( - 3 ) lam3n2 ) ( * ( - 2 ) lam3n3 ) ( * Nl5CT1 lam3n4 ) ( * Nl5CT2 lam3n5 ) ( - 501 ) ) 0 ) ( = ( + ( * 1 lam3n0 ) ( * ( - 1 ) lam3n2 ) ( * ( - 1 ) lam3n3 ) ( * Nl5main_i1 lam3n4 ) ( * Nl5main_i2 lam3n5 ) ( - 1 ) ) 0 ) ( = ( + ( * ( - 1 ) lam3n0 ) ( * 1 lam3n1 ) ( * ( - 1 ) lam3n2 ) ( * Nl5main_j1 lam3n4 ) ( * Nl5main_j2 lam3n5 ) ( - 1 ) ) 0 ) ( = ( + ( * ( - 1 ) lam3n0 ) ( * ( - 1 ) lam3n1 ) ( * 1 lam3n3 ) ( * Nl5main_a1 lam3n4 ) ( * Nl5main_a2 lam3n5 ) ) 0 ) ) ) ( and ( and ( = main_i 0 ) ( <= ( + ( + ( + Nl5CT1 ( * Nl5main_j1 0 ) ) ( * Nl5main_a1 2 ) ) ( * ( + 0 Nl5main_i1 ) main_i ) ) 0 ) ( <= ( + ( + ( + Nl5CT2 ( * Nl5main_j2 0 ) ) ( * Nl5main_a2 2 ) ) ( * ( + 0 Nl5main_i2 ) main_i ) ) 0 ) ) false ) ))
(check-sat)
(exit)
